6 28
28 16
15 2
26 3
21 28
16 17
10 24
17 16
26 42
10 12
27 17
9 25
18 29
9 5
7 31
14 29
27 49
19 33
13 49
5 24
22 8
26 8
30 18
6 38
13 9
9 7
20 39
15 31
7 41
25 11
26 36
6 10
27 22
16 18
13 16
21 17
22 19
25 37
10 12
14 45
22 35
14 17
27 32
8 18
26 15
13 2
25 25
5 21
7 45
23 44
